Problem:    
Rows:       260
Columns:    89 (72 integer, 72 binary)
Non-zeros:  974
Status:     INTEGER OPTIMAL
Objective:  value = 39.985086 (MINimum)

   No.   Row name        Activity     Lower bound   Upper bound
------ ------------    ------------- ------------- -------------
     1 r.5                   39.9851             0               
     2 r.6                   21.8796      -983.053               
     3 r.7                   1039.99             0               
     4 r.8                  -981.002      -983.385               
     5 r.9                   1039.99             0               
     6 r.10                 -978.529      -983.139               
     7 r.11                  39.9851             0               
     8 r.12                   21.471      -983.403               
     9 r.13                  1039.99             0               
    10 r.14                 -995.799      -999.032               
    11 r.15                  39.9851             0               
    12 r.16                 -993.665      -995.115               
    13 r.17                  1039.99             0               
    14 r.18                 -996.767      -998.216               
    15 r.19                  39.9851             0               
    16 r.20                   21.471      -992.707               
    17 r.21                  39.9851             0               
    18 r.22                  28.5914      -991.822               
    19 r.23                  1039.99             0               
    20 r.24                 -971.409       -991.08               
    21 r.25                  1039.99             0               
    22 r.26                 -999.368      -999.368               
    23 r.27                  39.9851             0               
    24 r.28                  2.79636      -998.726               
    25 r.29                  1039.99             0               
    26 r.30                 -960.015      -981.486               
    27 r.31                  39.9851             0               
    28 r.32                  39.9851      -989.851               
    29 r.33                  39.9851             0               
    30 r.34                  39.9851      -974.507               
    31 r.35                  1039.99             0               
    32 r.36                 -960.015      -988.606               
    33 r.37                        1             1             = 
    34 r.38                        1             1             = 
    35 r.39                        1             1             = 
    36 r.40                        1             1             = 
    37 r.41                        1             1             = 
    38 r.42                        1             1             = 
    39 r.43                        1             1             = 
    40 r.44                        1             1             = 
    41 r.45                     1001             2               
    42 r.46                    -1001         -1001               
    43 r.47                     2000      -983.139               
    44 r.48                     1001             2               
    45 r.49                    -1001         -1001               
    46 r.50                   2001.8      -983.403               
    47 r.51                     1001             2               
    48 r.52                    -1001         -1001               
    49 r.53                  1982.73      -999.032               
    50 r.54                     1001             2               
    51 r.55                    -1001         -1001               
    52 r.56                  986.663      -995.115               
    53 r.57                     1001             2               
    54 r.58                    -1001         -1001               
    55 r.59                  1981.76      -998.216               
    56 r.60                     1001             2               
    57 r.61                    -1001         -1001               
    58 r.62                   2001.8      -992.707               
    59 r.63                     1000             2               
    60 r.64                    -1000         -1001               
    61 r.65                  2007.12      -991.822               
    62 r.66                        2             2               
    63 r.67                       -2         -1001               
    64 r.68                  -991.08       -991.08               
    65 r.69                  20.4304      -983.053               
    66 r.70                 -982.451      -983.385               
    67 r.71                  20.4304      -983.053               
    68 r.72                 -982.451      -983.385               
    69 r.73                 -981.486      -981.486               
    70 r.74                  18.5141      -989.851               
    71 r.75                 -979.687      -981.486               
    72 r.76                  20.3134      -989.851               
    73 r.77                  18.5141      -974.507               
    74 r.78                 -981.486      -988.606               
    75 r.79                  20.3134      -974.507               
    76 r.80                 -979.687      -988.606               
    77 r.81                     1001             2               
    78 r.82                    -1001         -1001               
    79 r.83                  2000.41        16.947               
    80 r.84                     1001             2               
    81 r.85                    -1001         -1001               
    82 r.86                  1997.53       16.6152               
    83 r.87                        2             2               
    84 r.88                       -2         -1001               
    85 r.89                   -17.27      -999.032               
    86 r.90                     1000             2               
    87 r.91                    -1000         -1001               
    88 r.92                  984.864      -995.115               
    89 r.93                        2             2               
    90 r.94                       -2         -1001               
    91 r.95                 -18.2376      -998.216               
    92 r.96                     1000             2               
    93 r.97                    -1000         -1001               
    94 r.98                     2000      -992.707               
    95 r.99                     1001             2               
    96 r.100                   -1001         -1001               
    97 r.101                 2007.12      -991.822               
    98 r.102                    1001             2               
    99 r.103                   -1001         -1001               
   100 r.104                 2007.12       -991.08               
   101 r.105                -979.978      -983.139               
   102 r.106                 20.0218      -983.403               
   103 r.107                -979.978      -983.139               
   104 r.108                 20.0218      -983.403               
   105 r.109                -981.486      -981.486               
   106 r.110                 18.5141      -989.851               
   107 r.111                -981.486      -981.486               
   108 r.112                 18.5141      -989.851               
   109 r.113                    1001             2               
   110 r.114                   -1001         -1001               
   111 r.115                 2018.51      -974.507               
   112 r.116                    1001             2               
   113 r.117                   -1001         -1001               
   114 r.118                 2018.51      -988.606               
   115 r.119                    1001             2               
   116 r.120                   -1001         -1001               
   117 r.121                 2017.27        16.947               
   118 r.122                    1001             2               
   119 r.123                   -1001         -1001               
   120 r.124                 3013.34       16.6152               
   121 r.125                       2             2               
   122 r.126                      -2         -1001               
   123 r.127                 16.8614       16.8614               
   124 r.128                    1000             2               
   125 r.129                   -1000         -1001               
   126 r.130                 3015.81       16.5968               
   127 r.131                       2             2               
   128 r.132                      -2         -1001               
   129 r.133                -1.37616      -998.216               
   130 r.134                    1000             2               
   131 r.135                   -1000         -1001               
   132 r.136                 3015.81      -992.707               
   133 r.137                    1001             2               
   134 r.138                   -1001         -1001               
   135 r.139                 2023.98      -991.822               
   136 r.140                    1001             2               
   137 r.141                   -1001         -1001               
   138 r.142                 3022.93       -991.08               
   139 r.143                -997.248      -999.032               
   140 r.144                -995.114      -995.115               
   141 r.145                -997.248      -999.032               
   142 r.146                -995.114      -995.115               
   143 r.147                -964.625      -981.486               
   144 r.148                 35.3755      -989.851               
   145 r.149                  34.324      -981.486               
   146 r.150                 1034.32      -989.851               
   147 r.151                 35.3755      -974.507               
   148 r.152                -964.625      -988.606               
   149 r.153                 1034.32      -974.507               
   150 r.154                  34.324      -988.606               
   151 r.155                    1001             2               
   152 r.156                   -1001         -1001               
   153 r.157                 2018.65        16.947               
   154 r.158                    1001             2               
   155 r.159                   -1001         -1001               
   156 r.160                 1997.53       16.6152               
   157 r.161                       2             2               
   158 r.162                      -2         -1001               
   159 r.163                 18.2376       16.8614               
   160 r.164                    1000             2               
   161 r.165                   -1000         -1001               
   162 r.166                    2000       16.5968               
   163 r.167                       2             2               
   164 r.168                      -2         -1001               
   165 r.169                0.967567      0.967567               
   166 r.170                    1000             2               
   167 r.171                   -1000         -1001               
   168 r.172                 984.864        4.8855               
   169 r.173                    1001             2               
   170 r.174                   -1001         -1001               
   171 r.175                 2025.36      -991.822               
   172 r.176                    1001             2               
   173 r.177                   -1001         -1001               
   174 r.178                 2007.12       -991.08               
   175 r.179                -998.216      -998.216               
   176 r.180                 20.0218      -992.707               
   177 r.181                -998.216      -998.216               
   178 r.182                 20.0218      -992.707               
   179 r.183                -963.248      -981.486               
   180 r.184                 36.7516      -989.851               
   181 r.185                -981.486      -981.486               
   182 r.186                 18.5141      -989.851               
   183 r.187                    1001             2               
   184 r.188                   -1001         -1001               
   185 r.189                 2036.75      -974.507               
   186 r.190                    1001             2               
   187 r.191                   -1001         -1001               
   188 r.192                 2018.51      -988.606               
   189 r.193                    1000             2               
   190 r.194                   -1000         -1001               
   191 r.195                 1993.29        16.947               
   192 r.196                       2             2               
   193 r.197                      -2         -1001               
   194 r.198                 990.407       16.6152               
   195 r.199                    1001             2               
   196 r.200                   -1001         -1001               
   197 r.201                 1992.88       16.8614               
   198 r.202                    1001             2               
   199 r.203                   -1001         -1001               
   200 r.204                 1992.88       16.5968               
   201 r.205                    1001             2               
   202 r.206                   -1001         -1001               
   203 r.207                 1975.61      0.967567               
   204 r.208                    1001             2               
   205 r.209                   -1001         -1001               
   206 r.210                 977.743        4.8855               
   207 r.211                    1001             2               
   208 r.212                   -1001         -1001               
   209 r.213                 1974.64       1.78426               
   210 r.214                    1001             2               
   211 r.215                   -1001         -1001               
   212 r.216                 1992.88        7.2934               
   213 r.217                 27.1422      -991.822               
   214 r.218                -972.858       -991.08               
   215 r.219                 27.1422      -991.822               
   216 r.220                -972.858       -991.08               
   217 r.221                    1001             2               
   218 r.222                   -1001         -1001               
   219 r.223                 2011.39      -981.486               
   220 r.224                    1001             2               
   221 r.225                   -1001         -1001               
   222 r.226                 2011.39      -989.851               
   223 r.227                 11.3937      -974.507               
   224 r.228                -988.606      -988.606               
   225 r.229                 11.3937      -974.507               
   226 r.230                -988.606      -988.606               
   227 r.231                -961.464      -981.486               
   228 r.232                 38.5359      -989.851               
   229 r.233                -961.464      -981.486               
   230 r.234                 38.5359      -989.851               
   231 r.235                    1001             2               
   232 r.236                   -1001         -1001               
   233 r.237                 1988.61       8.17847               
   234 r.238                    1001             2               
   235 r.239                   -1001         -1001               
   236 r.240                 1988.61        8.9197               
   237 r.241                    1001             2               
   238 r.242                   -1001         -1001               
   239 r.243                    2000      -974.507               
   240 r.244                    1001             2               
   241 r.245                   -1001         -1001               
   242 r.246                    2000      -988.606               
   243 r.247                    1001             2               
   244 r.248                   -1001         -1001               
   245 r.249                 1981.49       16.8614               
   246 r.250                    1001             2               
   247 r.251                   -1001         -1001               
   248 r.252                 1981.49       16.5968               
   249 r.253                    1001             2               
   250 r.254                   -1001         -1001               
   251 r.255                 1963.25       1.78426               
   252 r.256                    1001             2               
   253 r.257                   -1001         -1001               
   254 r.258                 1981.49        7.2934               
   255 r.259                    1001             2               
   256 r.260                   -1001         -1001               
   257 r.261                    2000       18.5141               
   258 r.262                    1001             2               
   259 r.263                   -1001         -1001               
   260 r.264                    2000       10.1486               

   No. Column name       Activity     Lower bound   Upper bound
------ ------------    ------------- ------------- -------------
     1 tt                    39.9851             0               
     2 s_1_1        *              0             0             1 
     3 t_1_1                 18.5141             0               
     4 s_1_8        *              0             0             1 
     5 s_1_7        *              1             0             1 
     6 s_2_1        *              1             0             1 
     7 t_2_1                 20.3134             0               
     8 s_2_8        *              1             0             1 
     9 s_2_7        *              0             0             1 
    10 s_1_2        *              1             0             1 
    11 t_1_2                 18.5141             0               
    12 s_2_2        *              0             0             1 
    13 t_2_2                 18.5141             0               
    14 s_1_3        *              1             0             1 
    15 t_1_3                 35.3755             0               
    16 s_2_3        *              0             0             1 
    17 t_2_3                 1034.32             0               
    18 s_1_4        *              1             0             1 
    19 t_1_4                 36.7516             0               
    20 s_2_4        *              0             0             1 
    21 t_2_4                 18.5141             0               
    22 s_1_5        *              0             0             1 
    23 t_1_5                 11.3937             0               
    24 s_2_5        *              1             0             1 
    25 t_2_5                 11.3937             0               
    26 s_1_6        *              1             0             1 
    27 t_1_6                 38.5359             0               
    28 s_2_6        *              0             0             1 
    29 t_2_6                 38.5359             0               
    30 t_1_7                       0             0               
    31 t_2_7                       0             0               
    32 t_1_8                       0             0               
    33 t_2_8                       0             0               
    34 r_1_1_2      *              1             0             1 
    35 u_1_1_2      *              0             0             1 
    36 r_2_1_2      *              1             0             1 
    37 u_2_1_2      *              0             0             1 
    38 r_1_1_3      *              1             0             1 
    39 u_1_1_3      *              0             0             1 
    40 r_2_1_3      *              1             0             1 
    41 u_2_1_3      *              0             0             1 
    42 r_1_1_4      *              1             0             1 
    43 u_1_1_4      *              0             0             1 
    44 r_2_1_4      *              1             0             1 
    45 u_2_1_4      *              0             0             1 
    46 r_1_1_5      *              1             0             1 
    47 u_1_1_5      *              0             0             1 
    48 r_2_1_5      *              0             0             1 
    49 u_2_1_5      *              1             0             1 
    50 r_1_2_3      *              0             0             1 
    51 u_1_2_3      *              0             0             1 
    52 r_2_2_3      *              1             0             1 
    53 u_2_2_3      *              0             0             1 
    54 r_1_2_4      *              0             0             1 
    55 u_1_2_4      *              0             0             1 
    56 r_2_2_4      *              1             0             1 
    57 u_2_2_4      *              0             0             1 
    58 r_1_2_5      *              1             0             1 
    59 u_1_2_5      *              0             0             1 
    60 r_2_2_5      *              1             0             1 
    61 u_2_2_5      *              0             0             1 
    62 r_1_2_8      *              1             0             1 
    63 u_1_2_8      *              0             0             1 
    64 r_2_2_8      *              1             0             1 
    65 u_2_2_8      *              0             0             1 
    66 r_1_3_4      *              0             0             1 
    67 u_1_3_4      *              0             0             1 
    68 r_2_3_4      *              1             0             1 
    69 u_2_3_4      *              0             0             1 
    70 r_1_3_5      *              1             0             1 
    71 u_1_3_5      *              0             0             1 
    72 r_2_3_5      *              1             0             1 
    73 u_2_3_5      *              0             0             1 
    74 r_1_4_5      *              1             0             1 
    75 u_1_4_5      *              0             0             1 
    76 r_2_4_5      *              1             0             1 
    77 u_2_4_5      *              0             0             1 
    78 r_1_4_8      *              1             0             1 
    79 u_1_4_8      *              0             0             1 
    80 r_2_4_8      *              1             0             1 
    81 u_2_4_8      *              0             0             1 
    82 r_1_5_7      *              1             0             1 
    83 u_1_5_7      *              0             0             1 
    84 r_2_5_7      *              1             0             1 
    85 u_2_5_7      *              0             0             1 
    86 r_1_7_8      *              1             0             1 
    87 u_1_7_8      *              0             0             1 
    88 r_2_7_8      *              1             0             1 
    89 u_2_7_8      *              0             0             1 

Integer feasibility conditions:

KKT.PE: max.abs.err = 4.55e-13 on row 22
        max.rel.err = 2.18e-16 on row 22
        High quality

KKT.PB: max.abs.err = 0.00e+00 on row 0
        max.rel.err = 0.00e+00 on row 0
        High quality

End of output
